SDVRP instances/custom_instances/p10_21_split0.vrp
NAME:p10_21_split
BEST_KNOWN: 0
COMMENT: 0
DIMENSION: 910
CAPACITY: 200
EDGE_WEIGHT_FORMAT: FUNCTION
EDGE_WEIGHT_TYPE: EXACT_2D
NODE_COORD_SECTION
1 0.00000 0.00000
2 6 -27
3 6 -27
4 6 -27
5 -38 16
6 -38 16
7 -38 16
8 -38 16
9 -38 16
10 -38 16
11 -38 16
12 -1 -10
13 -1 -10
14 -1 -10
15 -1 -10
16 -1 -10
17 -29 -37
18 -29 -37
19 -29 -37
20 -29 -37
21 -29 -37
22 -27 -18
23 -27 -18
24 -27 -18
25 -27 -18
26 -27 -18
27 -27 -18
28 -7 -14
29 -7 -14
30 -7 -14
31 -7 -14
32 33 15
33 8 -7
34 8 -7
35 8 -7
36 8 -7
37 8 -7
38 8 -7
39 8 -7
40 -38 32
41 -38 32
42 -38 32
43 -38 32
44 -38 32
45 -38 32
46 -38 32
47 -30 18
48 -30 18
49 -30 18
50 -30 18
51 -30 18
52 -30 18
53 -30 18
54 37 -25
55 37 -25
56 37 -25
57 37 -25
58 -26 -20
59 -26 -20
60 -26 -20
61 -26 -20
62 -26 -20
63 -26 -20
64 18 42
65 18 42
66 18 42
67 18 42
68 18 42
69 -37 -12
70 -37 -12
71 -37 -12
72 -37 -12
73 -37 -12
74 17 1
75 17 1
76 17 1
77 17 1
78 17 1
79 17 1
80 -12 -47
81 -12 -47
82 -12 -47
83 -12 -47
84 -32 26
85 -32 26
86 -32 26
87 -32 26
88 27 -48
89 27 -48
90 27 -48
91 -23 -29
92 -23 -29
93 -23 -29
94 21 41
95 21 41
96 21 41
97 21 41
98 46 -37
99 46 -37
100 46 -37
101 29 35
102 29 35
103 29 35
104 29 35
105 29 35
106 29 35
107 -43 19
108 -43 19
109 -43 19
110 -43 19
111 -43 19
112 41 -25
113 41 -25
114 41 -25
115 41 -25
116 41 -25
117 41 -25
118 39 -49
119 39 -49
120 39 -49
121 -41 17
122 -41 17
123 -41 17
124 38 7
125 38 7
126 38 7
127 38 7
128 38 7
129 38 7
130 18 -19
131 18 -19
132 18 -19
133 18 -19
134 18 -19
135 -11 -8
136 -11 -8
137 -11 -8
138 -11 -8
139 -11 -8
140 -11 -8
141 7 1
142 7 1
143 7 1
144 -45 -44
145 -45 -44
146 -45 -44
147 49 46
148 49 46
149 49 46
150 49 46
151 -39 -24
152 -39 -24
153 -39 -24
154 -39 -24
155 -39 -24
156 -2 -4
157 -2 -4
158 -2 -4
159 -2 -4
160 -2 -4
161 -18 6
162 -18 6
163 -18 6
164 -18 6
165 33 -40
166 33 -40
167 33 -40
168 33 -40
169 33 -40
170 33 -40
171 33 -40
172 -38 -10
173 -38 -10
174 -38 -10
175 -38 -10
176 -38 -10
177 -45 50
178 -45 50
179 -45 50
180 21 -36
181 21 -36
182 21 -36
183 21 -36
184 21 -36
185 50 23
186 50 23
187 50 23
188 50 23
189 50 23
190 50 23
191 -50 22
192 -50 22
193 -50 22
194 -50 22
195 -50 22
196 15 48
197 15 48
198 15 48
199 -38 25
200 13 7
201 13 7
202 13 7
203 13 7
204 13 7
205 13 7
206 14 -26
207 14 -26
208 14 -26
209 14 -26
210 14 -26
211 14 -26
212 14 -26
213 37 22
214 37 22
215 37 22
216 37 22
217 37 22
218 37 22
219 18 -20
220 18 -20
221 18 -20
222 18 -20
223 18 -20
224 14 -6
225 14 -6
226 14 -6
227 14 -6
228 14 -6
229 14 -6
230 14 -6
231 -39 -14
232 -39 -14
233 -39 -14
234 -8 -48
235 -8 -48
236 -8 -48
237 -11 43
238 -11 43
239 -11 43
240 -11 43
241 -11 43
242 -11 43
243 -17 23
244 -17 23
245 -17 23
246 -17 23
247 -48 6
248 -48 6
249 -48 6
250 -48 6
251 -48 6
252 -18 -2
253 -18 -2
254 -18 -2
255 -18 -2
256 -18 -2
257 39 -15
258 39 -15
259 39 -15
260 39 -15
261 39 -15
262 39 -15
263 16 -11
264 16 -11
265 16 -11
266 16 -11
267 16 -11
268 -34 12
269 -34 12
270 -34 12
271 -26 -34
272 -26 -34
273 -26 -34
274 -26 -34
275 -26 -34
276 34 -31
277 34 -31
278 34 -31
279 34 -31
280 34 -31
281 34 -31
282 18 -17
283 18 -17
284 18 -17
285 18 -17
286 18 -17
287 18 -17
288 2 -38
289 2 -38
290 2 -38
291 2 -38
292 2 -38
293 2 -38
294 -22 3
295 -22 3
296 -22 3
297 -22 3
298 -22 3
299 14 22
300 14 22
301 14 22
302 14 22
303 14 22
304 43 -49
305 43 -49
306 43 -49
307 43 -49
308 43 -49
309 43 -49
310 43 -49
311 43 -49
312 -28 -37
313 -28 -37
314 -28 -37
315 -28 -37
316 -28 -37
317 48 -41
318 48 -41
319 17 -43
320 17 -43
321 17 -43
322 17 -43
323 17 -43
324 17 -43
325 17 -43
326 47 3
327 47 3
328 47 3
329 -12 2
330 -12 2
331 -12 2
332 -12 2
333 -12 2
334 -39 -40
335 -39 -40
336 31 -19
337 31 -19
338 31 -19
339 31 -19
340 31 -19
341 -9 16
342 -9 16
343 -15 44
344 -15 44
345 -15 44
346 40 -36
347 40 -36
348 40 -36
349 40 -36
350 40 -36
351 40 -36
352 42 43
353 42 43
354 42 43
355 29 -23
356 29 -23
357 3 -16
358 3 -16
359 3 -16
360 3 -16
361 3 -16
362 -40 18
363 -40 18
364 -40 18
365 -40 18
366 -40 18
367 -5 24
368 -5 24
369 -5 24
370 -5 24
371 -5 24
372 -5 24
373 -5 24
374 -5 24
375 -38 -12
376 -38 -12
377 -38 -12
378 -38 -12
379 21 -42
380 21 -42
381 21 -42
382 21 -42
383 21 -42
384 21 -42
385 50 35
386 50 35
387 50 35
388 37 6
389 37 6
390 37 6
391 37 6
392 37 6
393 -36 1
394 -22 -39
395 -22 -39
396 25 -21
397 25 -21
398 25 -21
399 25 -21
400 46 -34
401 46 -34
402 46 -34
403 46 -34
404 46 -34
405 46 -34
406 13 -37
407 13 -37
408 13 -37
409 13 -37
410 13 -37
411 13 -37
412 19 3
413 19 3
414 19 3
415 19 3
416 19 3
417 -36 25
418 -36 25
419 -36 25
420 -36 25
421 -36 25
422 -36 25
423 15 -44
424 15 -44
425 -4 44
426 -4 44
427 -4 44
428 -4 44
429 -4 44
430 -33 -40
431 -33 -40
432 -37 23
433 -37 23
434 -37 23
435 -37 23
436 -37 23
437 -1 8
438 -1 8
439 -1 8
440 -1 8
441 -35 -26
442 -35 -26
443 -35 -26
444 -35 -26
445 -35 -26
446 -35 -26
447 -15 2
448 -39 4
449 -39 4
450 -39 4
451 -39 4
452 -39 4
453 0 -48
454 0 -48
455 0 -48
456 0 -48
457 0 -48
458 0 -48
459 0 -48
460 5 8
461 5 8
462 5 8
463 5 8
464 5 8
465 49 -2
466 49 -2
467 49 -2
468 1 25
469 1 25
470 1 25
471 -30 -11
472 -30 -11
473 -30 -11
474 -30 -11
475 -30 -11
476 -30 -11
477 -28 15
478 -28 15
479 -28 15
480 34 -9
481 34 -9
482 34 -9
483 34 -9
484 34 -9
485 40 32
486 40 32
487 40 32
488 40 32
489 40 32
490 -21 10
491 -21 10
492 -34 36
493 -34 36
494 -34 36
495 -34 36
496 -34 36
497 -3 13
498 -3 13
499 -3 13
500 -3 13
501 -3 13
502 -3 13
503 47 17
504 47 17
505 47 17
506 47 17
507 47 17
508 -35 -47
509 -35 -47
510 -35 -47
511 31 7
512 31 7
513 31 7
514 31 7
515 -17 -31
516 -17 -31
517 1 -12
518 1 -12
519 38 -19
520 38 -19
521 38 -19
522 38 -19
523 38 -19
524 38 -19
525 38 -19
526 3 -39
527 3 -39
528 3 -39
529 3 -39
530 -42 -6
531 -42 -6
532 -42 -6
533 -42 -6
534 -44 -45
535 -44 -45
536 -44 -45
537 -29 -18
538 -29 -18
539 -29 -18
540 -29 -18
541 -29 -18
542 -46 -12
543 -46 -12
544 -46 -12
545 -46 -12
546 -46 -12
547 -46 -12
548 -29 -3
549 -29 -3
550 -29 -3
551 -29 -3
552 -29 -3
553 48 25
554 48 25
555 48 25
556 48 25
557 12 35
558 12 35
559 12 35
560 12 35
561 -29 -7
562 -29 -7
563 -29 -7
564 -29 -7
565 -29 -7
566 -29 -7
567 -29 -7
568 18 16
569 18 16
570 18 16
571 18 16
572 -36 -47
573 -36 -47
574 -35 38
575 -35 38
576 -35 38
577 -35 38
578 -35 38
579 -32 -39
580 -32 -39
581 -32 -39
582 -32 -39
583 -32 -39
584 -32 -39
585 -32 -39
586 23 46
587 23 46
588 23 46
589 23 46
590 23 46
591 23 46
592 35 -27
593 35 -27
594 35 -27
595 35 -27
596 35 -27
597 35 -27
598 35 -27
599 35 16
600 35 16
601 35 16
602 35 16
603 35 16
604 -33 -21
605 -33 -21
606 -33 -21
607 -33 -21
608 -33 -21
609 -6 46
610 -6 46
611 -6 46
612 -6 46
613 40 -23
614 40 -23
615 40 -23
616 -32 2
617 -32 2
618 -32 2
619 37 -12
620 37 -12
621 37 -12
622 37 -12
623 37 -12
624 37 -12
625 9 46
626 9 46
627 9 46
628 -30 -21
629 -30 -21
630 -30 -21
631 -30 -21
632 -38 6
633 -38 6
634 -38 6
635 -38 6
636 26 13
637 26 13
638 26 13
639 26 13
640 26 13
641 12 43
642 12 43
643 44 -27
644 44 -27
645 44 -27
646 44 -27
647 44 -27
648 44 -27
649 44 -27
650 -33 17
651 -33 17
652 -33 17
653 -9 20
654 -9 20
655 -9 20
656 -9 20
657 -9 20
658 -41 -2
659 -41 -2
660 -41 -2
661 -41 -2
662 -41 -2
663 -41 -2
664 -24 -28
665 -24 -28
666 -24 -28
667 -24 -28
668 -24 -28
669 -24 -28
670 -30 42
671 -30 42
672 -30 42
673 -30 42
674 -30 42
675 -30 42
676 47 -27
677 47 -27
678 47 -27
679 19 39
680 19 39
681 19 39
682 23 21
683 23 21
684 23 21
685 23 21
686 23 21
687 47 -3
688 47 -3
689 47 -3
690 47 -3
691 47 -3
692 47 -3
693 50 10
694 50 10
695 50 10
696 50 10
697 -7 -30
698 -7 -30
699 -7 -30
700 -7 -30
701 -7 -30
702 -13 49
703 -13 49
704 -13 49
705 -13 49
706 9 35
707 9 35
708 9 35
709 9 35
710 9 35
711 8 -29
712 8 -29
713 8 -29
714 8 -29
715 8 -29
716 8 -29
717 8 -29
718 -35 -45
719 -35 -45
720 -35 -45
721 -35 -45
722 -45 15
723 -45 15
724 -45 15
725 40 -10
726 40 -10
727 40 -10
728 40 -10
729 0 24
730 0 24
731 37 -38
732 37 -38
733 37 -38
734 -39 -42
735 -39 -42
736 -39 -42
737 -39 -42
738 -8 -37
739 -8 -37
740 -8 -37
741 -8 -37
742 6 48
743 6 48
744 6 48
745 6 48
746 6 48
747 6 48
748 -47 12
749 -47 12
750 -47 12
751 50 -46
752 50 -46
753 50 -46
754 50 -46
755 50 -46
756 50 -46
757 50 -46
758 -30 3
759 -30 3
760 -30 3
761 -30 3
762 -30 3
763 -30 3
764 -12 -45
765 -12 -45
766 -12 -45
767 -12 -45
768 -12 -45
769 15 -43
770 15 -43
771 15 -43
772 15 -43
773 15 -43
774 15 -43
775 -34 -20
776 -34 -20
777 -34 -20
778 -34 -20
779 -34 -20
780 -34 -20
781 33 -14
782 33 -14
783 33 -14
784 33 -14
785 40 -38
786 40 -38
787 40 -38
788 40 -38
789 40 -38
790 40 -38
791 -25 -5
792 -25 -5
793 -18 31
794 -18 31
795 -18 31
796 -18 31
797 -18 31
798 -18 31
799 49 47
800 49 47
801 49 47
802 49 47
803 49 47
804 -10 14
805 -10 14
806 -10 14
807 -10 14
808 1 7
809 1 7
810 1 7
811 1 7
812 1 7
813 1 7
814 -13 -32
815 -13 -32
816 -13 -32
817 -13 -32
818 -13 -32
819 -15 -6
820 -15 -6
821 -15 -6
822 -15 -6
823 -15 -6
824 -15 -6
825 -42 -17
826 -42 -17
827 -14 -37
828 -14 -37
829 -14 -37
830 -14 -37
831 -33 5
832 -33 5
833 34 -45
834 34 -45
835 34 -45
836 34 -45
837 34 -45
838 -15 -33
839 -15 -33
840 -15 -33
841 -15 -33
842 -47 -29
843 -47 -29
844 -4 -17
845 -4 -17
846 -4 -17
847 47 -31
848 47 -31
849 47 -31
850 -43 -27
851 -43 -27
852 -43 -27
853 -43 -27
854 -43 -27
855 -43 -27
856 -43 -27
857 -44 43
858 -44 43
859 -44 43
860 -44 43
861 -14 10
862 -14 10
863 -14 10
864 -14 10
865 -14 10
866 -14 10
867 -8 1
868 -8 1
869 -8 1
870 -28 -37
871 -28 -37
872 -28 -37
873 -49 12
874 -49 12
875 -49 12
876 -49 12
877 -49 12
878 -49 12
879 -49 12
880 29 35
881 29 35
882 29 35
883 29 35
884 29 35
885 29 35
886 29 35
887 8 -49
888 8 -49
889 8 -49
890 8 -49
891 8 -49
892 8 -49
893 44 -45
894 44 -45
895 44 -45
896 44 -45
897 20 16
898 20 16
899 20 16
900 20 37
901 20 37
902 20 37
903 20 37
904 20 37
905 20 37
906 -21 39
907 -21 39
908 -21 39
909 -21 39
910 -21 39
DEMAND_SECTION
1 0
2 40
3 2
4 1
5 40
6 20
7 10
8 2
9 2
10 2
11 1
12 40
13 20
14 10
15 2
16 1
17 40
18 40
19 2
20 2
21 1
22 40
23 40
24 10
25 2
26 2
27 2
28 40
29 20
30 2
31 2
32 40
33 40
34 40
35 10
36 2
37 2
38 2
39 2
40 40
41 20
42 2
43 2
44 2
45 2
46 1
47 40
48 40
49 10
50 2
51 2
52 2
53 2
54 40
55 40
56 10
57 1
58 40
59 10
60 2
61 2
62 2
63 2
64 40
65 40
66 2
67 2
68 2
69 40
70 2
71 2
72 2
73 1
74 20
75 2
76 2
77 2
78 2
79 1
80 40
81 20
82 10
83 1
84 40
85 10
86 2
87 2
88 40
89 20
90 2
91 40
92 10
93 1
94 40
95 2
96 2
97 1
98 20
99 10
100 1
101 40
102 2
103 2
104 2
105 2
106 1
107 40
108 2
109 2
110 2
111 2
112 40
113 20
114 10
115 2
116 2
117 2
118 20
119 10
120 1
121 40
122 20
123 2
124 20
125 10
126 2
127 2
128 2
129 2
130 40
131 2
132 2
133 2
134 1
135 40
136 10
137 2
138 2
139 2
140 2
141 40
142 2
143 2
144 40
145 40
146 1
147 40
148 20
149 2
150 1
151 40
152 40
153 10
154 2
155 2
156 40
157 20
158 10
159 2
160 1
161 40
162 20
163 2
164 1
165 40
166 10
167 2
168 2
169 2
170 2
171 1
172 40
173 2
174 2
175 2
176 2
177 40
178 40
179 20
180 20
181 2
182 2
183 2
184 1
185 40
186 20
187 10
188 2
189 2
190 1
191 40
192 40
193 10
194 2
195 2
196 40
197 20
198 2
199 40
200 40
201 40
202 10
203 2
204 2
205 1
206 40
207 40
208 2
209 2
210 2
211 2
212 1
213 40
214 10
215 2
216 2
217 2
218 1
219 20
220 10
221 2
222 2
223 2
224 40
225 20
226 10
227 2
228 2
229 2
230 1
231 40
232 40
233 10
234 40
235 40
236 1
237 40
238 40
239 2
240 2
241 2
242 1
243 20
244 10
245 2
246 2
247 40
248 40
249 10
250 2
251 1
252 20
253 2
254 2
255 2
256 1
257 40
258 20
259 10
260 2
261 2
262 1
263 40
264 40
265 2
266 2
267 1
268 40
269 2
270 1
271 40
272 40
273 10
274 2
275 2
276 40
277 10
278 2
279 2
280 2
281 2
282 40
283 10
284 2
285 2
286 2
287 2
288 40
289 40
290 2
291 2
292 2
293 2
294 40
295 40
296 2
297 2
298 2
299 40
300 20
301 10
302 2
303 1
304 40
305 20
306 10
307 2
308 2
309 2
310 2
311 1
312 40
313 20
314 10
315 2
316 1
317 40
318 2
319 40
320 10
321 2
322 2
323 2
324 2
325 1
326 20
327 10
328 2
329 40
330 20
331 10
332 2
333 1
334 40
335 20
336 40
337 40
338 10
339 2
340 2
341 40
342 40
343 40
344 20
345 10
346 40
347 40
348 10
349 2
350 2
351 1
352 40
353 10
354 2
355 20
356 10
357 40
358 20
359 2
360 2
361 1
362 20
363 10
364 2
365 2
366 1
367 40
368 40
369 10
370 2
371 2
372 2
373 2
374 1
375 40
376 10
377 2
378 1
379 40
380 2
381 2
382 2
383 2
384 1
385 40
386 10
387 1
388 40
389 10
390 2
391 2
392 2
393 40
394 40
395 2
396 40
397 20
398 2
399 2
400 40
401 40
402 2
403 2
404 2
405 1
406 40
407 2
408 2
409 2
410 2
411 1
412 40
413 20
414 2
415 2
416 1
417 40
418 10
419 2
420 2
421 2
422 1
423 40
424 20
425 40
426 40
427 10
428 2
429 2
430 40
431 20
432 40
433 20
434 10
435 2
436 2
437 20
438 2
439 2
440 1
441 40
442 20
443 2
444 2
445 2
446 2
447 40
448 40
449 20
450 10
451 2
452 1
453 20
454 10
455 2
456 2
457 2
458 2
459 1
460 40
461 20
462 2
463 2
464 2
465 40
466 40
467 1
468 40
469 40
470 20
471 20
472 10
473 2
474 2
475 2
476 2
477 40
478 20
479 1
480 40
481 20
482 10
483 2
484 2
485 40
486 2
487 2
488 2
489 1
490 40
491 2
492 40
493 20
494 10
495 2
496 1
497 40
498 20
499 2
500 2
501 2
502 2
503 40
504 2
505 2
506 2
507 1
508 40
509 2
510 2
511 40
512 40
513 2
514 1
515 40
516 20
517 20
518 10
519 40
520 20
521 10
522 2
523 2
524 2
525 1
526 40
527 10
528 2
529 1
530 40
531 20
532 10
533 2
534 40
535 10
536 1
537 40
538 20
539 2
540 2
541 1
542 40
543 40
544 10
545 2
546 2
547 2
548 20
549 2
550 2
551 2
552 2
553 20
554 2
555 2
556 2
557 40
558 20
559 2
560 1
561 40
562 20
563 2
564 2
565 2
566 2
567 1
568 20
569 10
570 2
571 1
572 40
573 10
574 20
575 2
576 2
577 2
578 1
579 40
580 10
581 2
582 2
583 2
584 2
585 1
586 40
587 40
588 10
589 2
590 2
591 2
592 40
593 20
594 10
595 2
596 2
597 2
598 1
599 40
600 20
601 10
602 2
603 2
604 40
605 20
606 10
607 2
608 1
609 20
610 10
611 2
612 1
613 20
614 10
615 1
616 40
617 20
618 10
619 40
620 40
621 10
622 2
623 2
624 2
625 40
626 40
627 1
628 40
629 40
630 2
631 1
632 40
633 40
634 2
635 2
636 40
637 40
638 2
639 2
640 2
641 40
642 10
643 40
644 20
645 10
646 2
647 2
648 2
649 1
650 40
651 20
652 10
653 20
654 10
655 2
656 2
657 1
658 40
659 40
660 2
661 2
662 2
663 1
664 40
665 10
666 2
667 2
668 2
669 2
670 40
671 20
672 2
673 2
674 2
675 1
676 40
677 20
678 1
679 40
680 40
681 1
682 40
683 20
684 10
685 2
686 1
687 40
688 2
689 2
690 2
691 2
692 1
693 40
694 10
695 2
696 2
697 20
698 10
699 2
700 2
701 2
702 20
703 10
704 2
705 1
706 40
707 20
708 10
709 2
710 2
711 40
712 10
713 2
714 2
715 2
716 2
717 1
718 40
719 40
720 2
721 2
722 20
723 10
724 1
725 40
726 20
727 2
728 1
729 40
730 10
731 40
732 10
733 2
734 40
735 40
736 2
737 1
738 20
739 2
740 2
741 2
742 40
743 20
744 10
745 2
746 2
747 1
748 40
749 2
750 2
751 40
752 40
753 10
754 2
755 2
756 2
757 2
758 40
759 10
760 2
761 2
762 2
763 2
764 40
765 2
766 2
767 2
768 2
769 40
770 10
771 2
772 2
773 2
774 1
775 40
776 20
777 10
778 2
779 2
780 1
781 40
782 2
783 2
784 1
785 20
786 2
787 2
788 2
789 2
790 1
791 20
792 10
793 40
794 2
795 2
796 2
797 2
798 1
799 20
800 10
801 2
802 2
803 2
804 40
805 2
806 2
807 2
808 40
809 10
810 2
811 2
812 2
813 1
814 40
815 40
816 10
817 2
818 1
819 40
820 20
821 10
822 2
823 2
824 2
825 40
826 10
827 40
828 20
829 10
830 1
831 20
832 10
833 20
834 10
835 2
836 2
837 1
838 40
839 40
840 10
841 1
842 20
843 10
844 40
845 2
846 2
847 40
848 10
849 2
850 20
851 10
852 2
853 2
854 2
855 2
856 1
857 40
858 20
859 2
860 2
861 20
862 10
863 2
864 2
865 2
866 1
867 40
868 10
869 1
870 40
871 10
872 2
873 40
874 20
875 10
876 2
877 2
878 2
879 1
880 40
881 20
882 2
883 2
884 2
885 2
886 1
887 20
888 10
889 2
890 2
891 2
892 1
893 40
894 40
895 2
896 1
897 40
898 20
899 1
900 40
901 2
902 2
903 2
904 2
905 1
906 20
907 10
908 2
909 2
910 2
DEPOT_SECTION
1
-1
EOF