SDVRP instances/custom_instances/p10_21_split0.sol
909 -6 5 9 122 120 121 361 362 365 363 364 649 651 650 -7 10 8 110 106 109 108 107 190 192 194 191 193 878 877 876 749 748 747 -16 20 18 17 19 312 869 313 273 271 -22 21 24 23 25 627 537 540 538 539 536 -26 152 150 153 151 154 853 855 849 440 442 443 441 444 445 -35 34 38 37 133 130 129 282 285 284 286 281 263 266 262 265 264 -36 32 33 12 14 13 15 11 155 -50 51 48 49 418 420 421 419 417 416 42 40 41 43 44 45 39 86 84 85 83 -55 54 53 56 591 597 596 592 593 595 594 354 355 -58 61 57 668 666 665 663 90 515 514 -62 60 59 629 630 628 603 607 606 605 604 776 779 774 778 777 775 -67 64 66 63 65 680 679 301 299 298 302 300 -74 78 76 77 327 325 326 694 693 692 695 128 126 123 125 124 127 388 387 390 391 389 -92 91 582 581 580 717 718 720 719 571 572 508 507 509 -93 95 96 94 587 590 586 588 589 585 102 884 883 105 684 683 681 -99 97 98 317 316 754 750 753 751 752 756 755 786 784 787 789 785 788 -100 104 881 880 879 101 882 103 885 901 899 900 902 904 903 678 -113 112 644 646 647 642 648 645 643 675 677 676 614 612 613 -115 114 111 116 847 846 848 401 399 400 403 402 404 280 279 277 283 -131 132 222 219 218 220 221 395 396 398 397 335 339 336 338 337 -140 142 141 415 413 414 412 411 75 73 227 224 226 228 229 223 -156 158 157 138 137 134 139 135 136 818 820 822 821 823 867 868 866 -159 29 30 27 28 844 843 845 357 356 517 516 -168 167 170 169 166 165 164 833 832 87 89 88 383 381 382 380 379 378 -174 546 543 545 541 542 544 824 825 232 231 -181 183 179 180 182 321 323 324 322 320 319 318 769 768 771 410 408 407 406 405 409 711 714 -198 432 431 434 435 433 4 267 269 268 -202 200 203 201 199 460 462 463 459 810 807 -204 638 31 599 602 601 600 598 214 212 213 217 215 216 682 685 -209 205 211 206 210 208 207 712 715 710 713 716 2 1 3 359 360 358 -225 781 782 783 619 618 620 623 621 622 479 481 483 480 482 -233 234 235 79 81 82 80 767 764 766 763 765 -239 238 241 240 237 236 701 703 704 702 342 344 343 -245 244 242 492 493 494 495 491 669 670 673 674 672 671 909 908 907 906 905 -255 254 252 253 251 791 790 547 551 550 549 548 563 564 560 561 470 471 819 -270 272 274 870 314 311 584 583 579 578 393 394 -278 275 276 348 350 349 346 347 345 732 730 731 -287 288 289 737 739 740 738 826 827 828 829 839 697 -291 292 290 527 526 525 528 453 456 452 454 458 455 457 889 888 886 890 887 891 423 422 772 770 773 -294 295 293 762 758 761 757 759 760 616 615 -296 297 830 831 633 634 631 632 447 448 449 617 -315 871 429 734 733 735 736 334 333 667 664 -328 330 332 331 329 446 161 163 162 160 860 864 863 -372 373 370 371 369 367 368 366 794 793 795 792 796 797 243 655 652 653 654 656 -384 386 385 552 554 555 553 186 185 187 184 189 188 505 502 504 506 503 -392 658 662 661 660 657 659 531 530 529 532 -426 427 428 425 424 608 611 610 609 743 741 746 744 742 -430 535 534 533 145 143 144 842 841 850 854 851 852 -438 439 436 437 728 729 467 468 469 808 812 811 809 -450 451 249 246 250 248 247 874 873 872 875 723 721 722 -461 351 353 352 798 800 801 799 802 148 147 149 146 485 484 488 487 486 -465 464 466 690 691 688 687 686 689 726 727 725 724 -472 473 475 474 72 70 69 68 71 230 376 375 374 377 171 175 173 172 562 566 565 -490 489 478 476 477 47 46 52 861 862 865 -501 497 500 498 499 496 340 341 803 804 806 805 -512 513 510 511 635 637 639 636 570 568 567 569 -524 522 518 523 521 520 519 259 257 256 261 260 258 780 -573 577 574 575 576 176 177 178 856 858 857 859 -641 640 197 196 195 626 625 624 745 -698 696 699 700 813 814 817 815 816 838 840 837 -707 705 706 709 708 559 558 556 557 897 898 896 -835 836 834 117 118 119 308 303 304 309 310 306 305 307 894 895 892 893 0 





OBJ=
5645.611
BEST_KNOWN=
0.000